TOUR_SECTION
131
13
181
158
61
81
144
161
2
135
111
75
25
40
119
196
1
142
192
20
74
117
172
130
37
160
190
122
137
17
93
112
76
106
66
151
73
197
52
178
41
166
169
22
124
83
132
67
100
15
44
99
49
54
150
48
58
10
92
87
155
78
110
179
157
113
46
9
114
108
180
141
18
12
116
7
120
183
79
188
29
162
51
50
109
3
148
159
4
121
165
97
134
56
39
89
115
182
11
35
6
154
14
91
36
68
38
34
16
101
85
184
187
55
149
167
103
174
102
176
139
28
33
84
62
193
104
94
19
185
5
23
71
126
153
105
24
163
45
95
200
125
26
127
31
53
80
195
21
59
77
136
118
107
42
82
147
123
90
128
88
164
138
199
171
70
32
189
146
173
64
133
177
27
57
43
194
143
191
98
8
47
30
198
186
69
140
175
60
145
86
63
156
65
168
72
96
129
152
170
-1
EOF